p cnf 834 1632
-7 -499 -109 0 
-109 -500 -116 0 
-116 -501 -123 0 
-123 -502 -130 0 
-130 -503 -137 0 
-137 -504 -144 0 
-144 -505 -151 0 
-151 -506 -158 0 
-7 -507 -109 0 
-109 -508 -116 0 
-116 -509 -123 0 
-123 -510 -130 0 
-130 -511 -137 0 
-137 -512 -144 0 
-144 -513 -151 0 
-151 -514 -158 0 
-7 -515 -109 0 
-109 -516 -116 0 
-116 -517 -123 0 
-123 -518 -130 0 
-130 -519 -137 0 
-137 -520 -144 0 
-144 -521 -151 0 
-151 -522 -158 0 
-7 -523 -109 0 
-109 -524 -116 0 
-116 -525 -123 0 
-123 -526 -130 0 
-130 -527 -137 0 
-137 -528 -144 0 
-144 -529 -151 0 
-151 -530 -158 0 
-7 -531 -109 0 
-109 -532 -116 0 
-116 -533 -123 0 
-123 -534 -130 0 
-130 -535 -137 0 
-137 -536 -144 0 
-144 -537 -151 0 
-151 -538 -158 0 
-7 -539 -109 0 
-109 -540 -116 0 
-116 -541 -123 0 
-123 -542 -130 0 
-130 -543 -137 0 
-137 -544 -144 0 
-144 -545 -151 0 
-151 -546 -158 0 
-14 -547 -159 0 
-159 -548 -166 0 
-166 -549 -173 0 
-173 -550 -180 0 
-180 -551 -187 0 
-187 -552 -194 0 
-194 -553 -201 0 
-201 -554 -208 0 
-14 -555 -159 0 
-159 -556 -166 0 
-166 -557 -173 0 
-173 -558 -180 0 
-180 -559 -187 0 
-187 -560 -194 0 
-194 -561 -201 0 
-201 -562 -208 0 
-14 -563 -159 0 
-159 -564 -166 0 
-166 -565 -173 0 
-173 -566 -180 0 
-180 -567 -187 0 
-187 -568 -194 0 
-194 -569 -201 0 
-201 -570 -208 0 
-14 -571 -159 0 
-159 -572 -166 0 
-166 -573 -173 0 
-173 -574 -180 0 
-180 -575 -187 0 
-187 -576 -194 0 
-194 -577 -201 0 
-201 -578 -208 0 
-14 -579 -159 0 
-159 -580 -166 0 
-166 -581 -173 0 
-173 -582 -180 0 
-180 -583 -187 0 
-187 -584 -194 0 
-194 -585 -201 0 
-201 -586 -208 0 
-14 -587 -159 0 
-159 -588 -166 0 
-166 -589 -173 0 
-173 -590 -180 0 
-180 -591 -187 0 
-187 -592 -194 0 
-194 -593 -201 0 
-201 -594 -208 0 
-21 -595 -209 0 
-209 -596 -216 0 
-216 -597 -223 0 
-223 -598 -230 0 
-230 -599 -237 0 
-237 -600 -244 0 
-244 -601 -251 0 
-251 -602 -258 0 
-21 -603 -209 0 
-209 -604 -216 0 
-216 -605 -223 0 
-223 -606 -230 0 
-230 -607 -237 0 
-237 -608 -244 0 
-244 -609 -251 0 
-251 -610 -258 0 
-21 -611 -209 0 
-209 -612 -216 0 
-216 -613 -223 0 
-223 -614 -230 0 
-230 -615 -237 0 
-237 -616 -244 0 
-244 -617 -251 0 
-251 -618 -258 0 
-21 -619 -209 0 
-209 -620 -216 0 
-216 -621 -223 0 
-223 -622 -230 0 
-230 -623 -237 0 
-237 -624 -244 0 
-244 -625 -251 0 
-251 -626 -258 0 
-21 -627 -209 0 
-209 -628 -216 0 
-216 -629 -223 0 
-223 -630 -230 0 
-230 -631 -237 0 
-237 -632 -244 0 
-244 -633 -251 0 
-251 -634 -258 0 
-21 -635 -209 0 
-209 -636 -216 0 
-216 -637 -223 0 
-223 -638 -230 0 
-230 -639 -237 0 
-237 -640 -244 0 
-244 -641 -251 0 
-251 -642 -258 0 
-28 -643 -259 0 
-259 -644 -266 0 
-266 -645 -273 0 
-273 -646 -280 0 
-280 -647 -287 0 
-287 -648 -294 0 
-294 -649 -301 0 
-301 -650 -308 0 
-28 -651 -259 0 
-259 -652 -266 0 
-266 -653 -273 0 
-273 -654 -280 0 
-280 -655 -287 0 
-287 -656 -294 0 
-294 -657 -301 0 
-301 -658 -308 0 
-28 -659 -259 0 
-259 -660 -266 0 
-266 -661 -273 0 
-273 -662 -280 0 
-280 -663 -287 0 
-287 -664 -294 0 
-294 -665 -301 0 
-301 -666 -308 0 
-28 -667 -259 0 
-259 -668 -266 0 
-266 -669 -273 0 
-273 -670 -280 0 
-280 -671 -287 0 
-287 -672 -294 0 
-294 -673 -301 0 
-301 -674 -308 0 
-28 -675 -259 0 
-259 -676 -266 0 
-266 -677 -273 0 
-273 -678 -280 0 
-280 -679 -287 0 
-287 -680 -294 0 
-294 -681 -301 0 
-301 -682 -308 0 
-28 -683 -259 0 
-259 -684 -266 0 
-266 -685 -273 0 
-273 -686 -280 0 
-280 -687 -287 0 
-287 -688 -294 0 
-294 -689 -301 0 
-301 -690 -308 0 
-35 -691 -309 0 
-309 -692 -316 0 
-316 -693 -323 0 
-323 -694 -330 0 
-330 -695 -337 0 
-337 -696 -344 0 
-344 -697 -351 0 
-351 -698 -358 0 
-35 -699 -309 0 
-309 -700 -316 0 
-316 -701 -323 0 
-323 -702 -330 0 
-330 -703 -337 0 
-337 -704 -344 0 
-344 -705 -351 0 
-351 -706 -358 0 
-35 -707 -309 0 
-309 -708 -316 0 
-316 -709 -323 0 
-323 -710 -330 0 
-330 -711 -337 0 
-337 -712 -344 0 
-344 -713 -351 0 
-351 -714 -358 0 
-35 -715 -309 0 
-309 -716 -316 0 
-316 -717 -323 0 
-323 -718 -330 0 
-330 -719 -337 0 
-337 -720 -344 0 
-344 -721 -351 0 
-351 -722 -358 0 
-35 -723 -309 0 
-309 -724 -316 0 
-316 -725 -323 0 
-323 -726 -330 0 
-330 -727 -337 0 
-337 -728 -344 0 
-344 -729 -351 0 
-351 -730 -358 0 
-35 -731 -309 0 
-309 -732 -316 0 
-316 -733 -323 0 
-323 -734 -330 0 
-330 -735 -337 0 
-337 -736 -344 0 
-344 -737 -351 0 
-351 -738 -358 0 
-42 -739 -359 0 
-359 -740 -366 0 
-366 -741 -373 0 
-373 -742 -380 0 
-380 -743 -387 0 
-387 -744 -394 0 
-394 -745 -401 0 
-401 -746 -408 0 
-42 -747 -359 0 
-359 -748 -366 0 
-366 -749 -373 0 
-373 -750 -380 0 
-380 -751 -387 0 
-387 -752 -394 0 
-394 -753 -401 0 
-401 -754 -408 0 
-42 -755 -359 0 
-359 -756 -366 0 
-366 -757 -373 0 
-373 -758 -380 0 
-380 -759 -387 0 
-387 -760 -394 0 
-394 -761 -401 0 
-401 -762 -408 0 
-42 -763 -359 0 
-359 -764 -366 0 
-366 -765 -373 0 
-373 -766 -380 0 
-380 -767 -387 0 
-387 -768 -394 0 
-394 -769 -401 0 
-401 -770 -408 0 
-42 -771 -359 0 
-359 -772 -366 0 
-366 -773 -373 0 
-373 -774 -380 0 
-380 -775 -387 0 
-387 -776 -394 0 
-394 -777 -401 0 
-401 -778 -408 0 
-42 -779 -359 0 
-359 -780 -366 0 
-366 -781 -373 0 
-373 -782 -380 0 
-380 -783 -387 0 
-387 -784 -394 0 
-394 -785 -401 0 
-401 -786 -408 0 
-49 -787 -409 0 
-409 -788 -411 0 
-411 -789 -413 0 
-413 -790 -415 0 
-415 -791 -417 0 
-417 -792 -419 0 
-419 -793 -421 0 
-421 -794 -423 0 
-51 -795 -424 0 
-424 -796 -426 0 
-426 -797 -428 0 
-428 -798 -430 0 
-430 -799 -432 0 
-432 -800 -434 0 
-434 -801 -436 0 
-436 -802 -438 0 
-53 -803 -439 0 
-439 -804 -441 0 
-441 -805 -443 0 
-443 -806 -445 0 
-445 -807 -447 0 
-447 -808 -449 0 
-449 -809 -451 0 
-451 -810 -453 0 
-55 -811 -454 0 
-454 -812 -456 0 
-456 -813 -458 0 
-458 -814 -460 0 
-460 -815 -462 0 
-462 -816 -464 0 
-464 -817 -466 0 
-466 -818 -468 0 
-57 -819 -469 0 
-469 -820 -471 0 
-471 -821 -473 0 
-473 -822 -475 0 
-475 -823 -477 0 
-477 -824 -479 0 
-479 -825 -481 0 
-481 -826 -483 0 
-59 -827 -484 0 
-484 -828 -486 0 
-486 -829 -488 0 
-488 -830 -490 0 
-490 -831 -492 0 
-492 -832 -494 0 
-494 -833 -496 0 
-496 -834 -498 0 
-1 61 0 
1 -61 0 
-61 62 0 
61 -62 0 
-62 63 0 
62 -63 0 
-63 64 0 
63 -64 0 
-64 65 0 
64 -65 0 
-65 66 0 
65 -66 0 
-66 67 0 
66 -67 0 
-67 68 0 
67 -68 0 
-2 69 0 
2 -69 0 
-69 70 0 
69 -70 0 
-70 71 0 
70 -71 0 
-71 72 0 
71 -72 0 
-72 73 0 
72 -73 0 
-73 74 0 
73 -74 0 
-74 75 0 
74 -75 0 
-75 76 0 
75 -76 0 
-3 77 0 
3 -77 0 
-77 78 0 
77 -78 0 
-78 79 0 
78 -79 0 
-79 80 0 
79 -80 0 
-80 81 0 
80 -81 0 
-81 82 0 
81 -82 0 
-82 83 0 
82 -83 0 
-83 84 0 
83 -84 0 
-4 85 0 
4 -85 0 
-85 86 0 
85 -86 0 
-86 87 0 
86 -87 0 
-87 88 0 
87 -88 0 
-88 89 0 
88 -89 0 
-89 90 0 
89 -90 0 
-90 91 0 
90 -91 0 
-91 92 0 
91 -92 0 
-5 93 0 
5 -93 0 
-93 94 0 
93 -94 0 
-94 95 0 
94 -95 0 
-95 96 0 
95 -96 0 
-96 97 0 
96 -97 0 
-97 98 0 
97 -98 0 
-98 99 0 
98 -99 0 
-99 100 0 
99 -100 0 
-6 101 0 
6 -101 0 
-101 102 0 
101 -102 0 
-102 103 0 
102 -103 0 
-103 104 0 
103 -104 0 
-104 105 0 
104 -105 0 
-105 106 0 
105 -106 0 
-106 107 0 
106 -107 0 
-107 108 0 
107 -108 0 
-7 -499 8 0 
-8 7 0 
-8 499 0 
-7 -507 9 0 
-9 7 0 
-9 507 0 
-7 -515 10 0 
-10 7 0 
-10 515 0 
-7 -523 11 0 
-11 7 0 
-11 523 0 
-7 -531 12 0 
-12 7 0 
-12 531 0 
-7 -539 13 0 
-13 7 0 
-13 539 0 
8 9 10 11 12 13 -7 109 0 
7 -109 0 
-109 -500 110 0 
-110 109 0 
-110 500 0 
-109 -508 111 0 
-111 109 0 
-111 508 0 
-109 -516 112 0 
-112 109 0 
-112 516 0 
-109 -524 113 0 
-113 109 0 
-113 524 0 
-109 -532 114 0 
-114 109 0 
-114 532 0 
-109 -540 115 0 
-115 109 0 
-115 540 0 
110 111 112 113 114 115 -109 116 0 
109 -116 0 
-116 -501 117 0 
-117 116 0 
-117 501 0 
-116 -509 118 0 
-118 116 0 
-118 509 0 
-116 -517 119 0 
-119 116 0 
-119 517 0 
-116 -525 120 0 
-120 116 0 
-120 525 0 
-116 -533 121 0 
-121 116 0 
-121 533 0 
-116 -541 122 0 
-122 116 0 
-122 541 0 
117 118 119 120 121 122 -116 123 0 
116 -123 0 
-123 -502 124 0 
-124 123 0 
-124 502 0 
-123 -510 125 0 
-125 123 0 
-125 510 0 
-123 -518 126 0 
-126 123 0 
-126 518 0 
-123 -526 127 0 
-127 123 0 
-127 526 0 
-123 -534 128 0 
-128 123 0 
-128 534 0 
-123 -542 129 0 
-129 123 0 
-129 542 0 
124 125 126 127 128 129 -123 130 0 
123 -130 0 
-130 -503 131 0 
-131 130 0 
-131 503 0 
-130 -511 132 0 
-132 130 0 
-132 511 0 
-130 -519 133 0 
-133 130 0 
-133 519 0 
-130 -527 134 0 
-134 130 0 
-134 527 0 
-130 -535 135 0 
-135 130 0 
-135 535 0 
-130 -543 136 0 
-136 130 0 
-136 543 0 
131 132 133 134 135 136 -130 137 0 
130 -137 0 
-137 -504 138 0 
-138 137 0 
-138 504 0 
-137 -512 139 0 
-139 137 0 
-139 512 0 
-137 -520 140 0 
-140 137 0 
-140 520 0 
-137 -528 141 0 
-141 137 0 
-141 528 0 
-137 -536 142 0 
-142 137 0 
-142 536 0 
-137 -544 143 0 
-143 137 0 
-143 544 0 
138 139 140 141 142 143 -137 144 0 
137 -144 0 
-144 -505 145 0 
-145 144 0 
-145 505 0 
-144 -513 146 0 
-146 144 0 
-146 513 0 
-144 -521 147 0 
-147 144 0 
-147 521 0 
-144 -529 148 0 
-148 144 0 
-148 529 0 
-144 -537 149 0 
-149 144 0 
-149 537 0 
-144 -545 150 0 
-150 144 0 
-150 545 0 
145 146 147 148 149 150 -144 151 0 
144 -151 0 
-151 -506 152 0 
-152 151 0 
-152 506 0 
-151 -514 153 0 
-153 151 0 
-153 514 0 
-151 -522 154 0 
-154 151 0 
-154 522 0 
-151 -530 155 0 
-155 151 0 
-155 530 0 
-151 -538 156 0 
-156 151 0 
-156 538 0 
-151 -546 157 0 
-157 151 0 
-157 546 0 
152 153 154 155 156 157 -151 158 0 
151 -158 0 
-14 -547 15 0 
-15 14 0 
-15 547 0 
-14 -555 16 0 
-16 14 0 
-16 555 0 
-14 -563 17 0 
-17 14 0 
-17 563 0 
-14 -571 18 0 
-18 14 0 
-18 571 0 
-14 -579 19 0 
-19 14 0 
-19 579 0 
-14 -587 20 0 
-20 14 0 
-20 587 0 
15 16 17 18 19 20 -14 159 0 
14 -159 0 
-159 -548 160 0 
-160 159 0 
-160 548 0 
-159 -556 161 0 
-161 159 0 
-161 556 0 
-159 -564 162 0 
-162 159 0 
-162 564 0 
-159 -572 163 0 
-163 159 0 
-163 572 0 
-159 -580 164 0 
-164 159 0 
-164 580 0 
-159 -588 165 0 
-165 159 0 
-165 588 0 
160 161 162 163 164 165 -159 166 0 
159 -166 0 
-166 -549 167 0 
-167 166 0 
-167 549 0 
-166 -557 168 0 
-168 166 0 
-168 557 0 
-166 -565 169 0 
-169 166 0 
-169 565 0 
-166 -573 170 0 
-170 166 0 
-170 573 0 
-166 -581 171 0 
-171 166 0 
-171 581 0 
-166 -589 172 0 
-172 166 0 
-172 589 0 
167 168 169 170 171 172 -166 173 0 
166 -173 0 
-173 -550 174 0 
-174 173 0 
-174 550 0 
-173 -558 175 0 
-175 173 0 
-175 558 0 
-173 -566 176 0 
-176 173 0 
-176 566 0 
-173 -574 177 0 
-177 173 0 
-177 574 0 
-173 -582 178 0 
-178 173 0 
-178 582 0 
-173 -590 179 0 
-179 173 0 
-179 590 0 
174 175 176 177 178 179 -173 180 0 
173 -180 0 
-180 -551 181 0 
-181 180 0 
-181 551 0 
-180 -559 182 0 
-182 180 0 
-182 559 0 
-180 -567 183 0 
-183 180 0 
-183 567 0 
-180 -575 184 0 
-184 180 0 
-184 575 0 
-180 -583 185 0 
-185 180 0 
-185 583 0 
-180 -591 186 0 
-186 180 0 
-186 591 0 
181 182 183 184 185 186 -180 187 0 
180 -187 0 
-187 -552 188 0 
-188 187 0 
-188 552 0 
-187 -560 189 0 
-189 187 0 
-189 560 0 
-187 -568 190 0 
-190 187 0 
-190 568 0 
-187 -576 191 0 
-191 187 0 
-191 576 0 
-187 -584 192 0 
-192 187 0 
-192 584 0 
-187 -592 193 0 
-193 187 0 
-193 592 0 
188 189 190 191 192 193 -187 194 0 
187 -194 0 
-194 -553 195 0 
-195 194 0 
-195 553 0 
-194 -561 196 0 
-196 194 0 
-196 561 0 
-194 -569 197 0 
-197 194 0 
-197 569 0 
-194 -577 198 0 
-198 194 0 
-198 577 0 
-194 -585 199 0 
-199 194 0 
-199 585 0 
-194 -593 200 0 
-200 194 0 
-200 593 0 
195 196 197 198 199 200 -194 201 0 
194 -201 0 
-201 -554 202 0 
-202 201 0 
-202 554 0 
-201 -562 203 0 
-203 201 0 
-203 562 0 
-201 -570 204 0 
-204 201 0 
-204 570 0 
-201 -578 205 0 
-205 201 0 
-205 578 0 
-201 -586 206 0 
-206 201 0 
-206 586 0 
-201 -594 207 0 
-207 201 0 
-207 594 0 
202 203 204 205 206 207 -201 208 0 
201 -208 0 
-21 -595 22 0 
-22 21 0 
-22 595 0 
-21 -603 23 0 
-23 21 0 
-23 603 0 
-21 -611 24 0 
-24 21 0 
-24 611 0 
-21 -619 25 0 
-25 21 0 
-25 619 0 
-21 -627 26 0 
-26 21 0 
-26 627 0 
-21 -635 27 0 
-27 21 0 
-27 635 0 
22 23 24 25 26 27 -21 209 0 
21 -209 0 
-209 -596 210 0 
-210 209 0 
-210 596 0 
-209 -604 211 0 
-211 209 0 
-211 604 0 
-209 -612 212 0 
-212 209 0 
-212 612 0 
-209 -620 213 0 
-213 209 0 
-213 620 0 
-209 -628 214 0 
-214 209 0 
-214 628 0 
-209 -636 215 0 
-215 209 0 
-215 636 0 
210 211 212 213 214 215 -209 216 0 
209 -216 0 
-216 -597 217 0 
-217 216 0 
-217 597 0 
-216 -605 218 0 
-218 216 0 
-218 605 0 
-216 -613 219 0 
-219 216 0 
-219 613 0 
-216 -621 220 0 
-220 216 0 
-220 621 0 
-216 -629 221 0 
-221 216 0 
-221 629 0 
-216 -637 222 0 
-222 216 0 
-222 637 0 
217 218 219 220 221 222 -216 223 0 
216 -223 0 
-223 -598 224 0 
-224 223 0 
-224 598 0 
-223 -606 225 0 
-225 223 0 
-225 606 0 
-223 -614 226 0 
-226 223 0 
-226 614 0 
-223 -622 227 0 
-227 223 0 
-227 622 0 
-223 -630 228 0 
-228 223 0 
-228 630 0 
-223 -638 229 0 
-229 223 0 
-229 638 0 
224 225 226 227 228 229 -223 230 0 
223 -230 0 
-230 -599 231 0 
-231 230 0 
-231 599 0 
-230 -607 232 0 
-232 230 0 
-232 607 0 
-230 -615 233 0 
-233 230 0 
-233 615 0 
-230 -623 234 0 
-234 230 0 
-234 623 0 
-230 -631 235 0 
-235 230 0 
-235 631 0 
-230 -639 236 0 
-236 230 0 
-236 639 0 
231 232 233 234 235 236 -230 237 0 
230 -237 0 
-237 -600 238 0 
-238 237 0 
-238 600 0 
-237 -608 239 0 
-239 237 0 
-239 608 0 
-237 -616 240 0 
-240 237 0 
-240 616 0 
-237 -624 241 0 
-241 237 0 
-241 624 0 
-237 -632 242 0 
-242 237 0 
-242 632 0 
-237 -640 243 0 
-243 237 0 
-243 640 0 
238 239 240 241 242 243 -237 244 0 
237 -244 0 
-244 -601 245 0 
-245 244 0 
-245 601 0 
-244 -609 246 0 
-246 244 0 
-246 609 0 
-244 -617 247 0 
-247 244 0 
-247 617 0 
-244 -625 248 0 
-248 244 0 
-248 625 0 
-244 -633 249 0 
-249 244 0 
-249 633 0 
-244 -641 250 0 
-250 244 0 
-250 641 0 
245 246 247 248 249 250 -244 251 0 
244 -251 0 
-251 -602 252 0 
-252 251 0 
-252 602 0 
-251 -610 253 0 
-253 251 0 
-253 610 0 
-251 -618 254 0 
-254 251 0 
-254 618 0 
-251 -626 255 0 
-255 251 0 
-255 626 0 
-251 -634 256 0 
-256 251 0 
-256 634 0 
-251 -642 257 0 
-257 251 0 
-257 642 0 
252 253 254 255 256 257 -251 258 0 
251 -258 0 
-28 -643 29 0 
-29 28 0 
-29 643 0 
-28 -651 30 0 
-30 28 0 
-30 651 0 
-28 -659 31 0 
-31 28 0 
-31 659 0 
-28 -667 32 0 
-32 28 0 
-32 667 0 
-28 -675 33 0 
-33 28 0 
-33 675 0 
-28 -683 34 0 
-34 28 0 
-34 683 0 
29 30 31 32 33 34 -28 259 0 
28 -259 0 
-259 -644 260 0 
-260 259 0 
-260 644 0 
-259 -652 261 0 
-261 259 0 
-261 652 0 
-259 -660 262 0 
-262 259 0 
-262 660 0 
-259 -668 263 0 
-263 259 0 
-263 668 0 
-259 -676 264 0 
-264 259 0 
-264 676 0 
-259 -684 265 0 
-265 259 0 
-265 684 0 
260 261 262 263 264 265 -259 266 0 
259 -266 0 
-266 -645 267 0 
-267 266 0 
-267 645 0 
-266 -653 268 0 
-268 266 0 
-268 653 0 
-266 -661 269 0 
-269 266 0 
-269 661 0 
-266 -669 270 0 
-270 266 0 
-270 669 0 
-266 -677 271 0 
-271 266 0 
-271 677 0 
-266 -685 272 0 
-272 266 0 
-272 685 0 
267 268 269 270 271 272 -266 273 0 
266 -273 0 
-273 -646 274 0 
-274 273 0 
-274 646 0 
-273 -654 275 0 
-275 273 0 
-275 654 0 
-273 -662 276 0 
-276 273 0 
-276 662 0 
-273 -670 277 0 
-277 273 0 
-277 670 0 
-273 -678 278 0 
-278 273 0 
-278 678 0 
-273 -686 279 0 
-279 273 0 
-279 686 0 
274 275 276 277 278 279 -273 280 0 
273 -280 0 
-280 -647 281 0 
-281 280 0 
-281 647 0 
-280 -655 282 0 
-282 280 0 
-282 655 0 
-280 -663 283 0 
-283 280 0 
-283 663 0 
-280 -671 284 0 
-284 280 0 
-284 671 0 
-280 -679 285 0 
-285 280 0 
-285 679 0 
-280 -687 286 0 
-286 280 0 
-286 687 0 
281 282 283 284 285 286 -280 287 0 
280 -287 0 
-287 -648 288 0 
-288 287 0 
-288 648 0 
-287 -656 289 0 
-289 287 0 
-289 656 0 
-287 -664 290 0 
-290 287 0 
-290 664 0 
-287 -672 291 0 
-291 287 0 
-291 672 0 
-287 -680 292 0 
-292 287 0 
-292 680 0 
-287 -688 293 0 
-293 287 0 
-293 688 0 
288 289 290 291 292 293 -287 294 0 
287 -294 0 
-294 -649 295 0 
-295 294 0 
-295 649 0 
-294 -657 296 0 
-296 294 0 
-296 657 0 
-294 -665 297 0 
-297 294 0 
-297 665 0 
-294 -673 298 0 
-298 294 0 
-298 673 0 
-294 -681 299 0 
-299 294 0 
-299 681 0 
-294 -689 300 0 
-300 294 0 
-300 689 0 
295 296 297 298 299 300 -294 301 0 
294 -301 0 
-301 -650 302 0 
-302 301 0 
-302 650 0 
-301 -658 303 0 
-303 301 0 
-303 658 0 
-301 -666 304 0 
-304 301 0 
-304 666 0 
-301 -674 305 0 
-305 301 0 
-305 674 0 
-301 -682 306 0 
-306 301 0 
-306 682 0 
-301 -690 307 0 
-307 301 0 
-307 690 0 
302 303 304 305 306 307 -301 308 0 
301 -308 0 
-35 -691 36 0 
-36 35 0 
-36 691 0 
-35 -699 37 0 
-37 35 0 
-37 699 0 
-35 -707 38 0 
-38 35 0 
-38 707 0 
-35 -715 39 0 
-39 35 0 
-39 715 0 
-35 -723 40 0 
-40 35 0 
-40 723 0 
-35 -731 41 0 
-41 35 0 
-41 731 0 
36 37 38 39 40 41 -35 309 0 
35 -309 0 
-309 -692 310 0 
-310 309 0 
-310 692 0 
-309 -700 311 0 
-311 309 0 
-311 700 0 
-309 -708 312 0 
-312 309 0 
-312 708 0 
-309 -716 313 0 
-313 309 0 
-313 716 0 
-309 -724 314 0 
-314 309 0 
-314 724 0 
-309 -732 315 0 
-315 309 0 
-315 732 0 
310 311 312 313 314 315 -309 316 0 
309 -316 0 
-316 -693 317 0 
-317 316 0 
-317 693 0 
-316 -701 318 0 
-318 316 0 
-318 701 0 
-316 -709 319 0 
-319 316 0 
-319 709 0 
-316 -717 320 0 
-320 316 0 
-320 717 0 
-316 -725 321 0 
-321 316 0 
-321 725 0 
-316 -733 322 0 
-322 316 0 
-322 733 0 
317 318 319 320 321 322 -316 323 0 
316 -323 0 
-323 -694 324 0 
-324 323 0 
-324 694 0 
-323 -702 325 0 
-325 323 0 
-325 702 0 
-323 -710 326 0 
-326 323 0 
-326 710 0 
-323 -718 327 0 
-327 323 0 
-327 718 0 
-323 -726 328 0 
-328 323 0 
-328 726 0 
-323 -734 329 0 
-329 323 0 
-329 734 0 
324 325 326 327 328 329 -323 330 0 
323 -330 0 
-330 -695 331 0 
-331 330 0 
-331 695 0 
-330 -703 332 0 
-332 330 0 
-332 703 0 
-330 -711 333 0 
-333 330 0 
-333 711 0 
-330 -719 334 0 
-334 330 0 
-334 719 0 
-330 -727 335 0 
-335 330 0 
-335 727 0 
-330 -735 336 0 
-336 330 0 
-336 735 0 
331 332 333 334 335 336 -330 337 0 
330 -337 0 
-337 -696 338 0 
-338 337 0 
-338 696 0 
-337 -704 339 0 
-339 337 0 
-339 704 0 
-337 -712 340 0 
-340 337 0 
-340 712 0 
-337 -720 341 0 
-341 337 0 
-341 720 0 
-337 -728 342 0 
-342 337 0 
-342 728 0 
-337 -736 343 0 
-343 337 0 
-343 736 0 
338 339 340 341 342 343 -337 344 0 
337 -344 0 
-344 -697 345 0 
-345 344 0 
-345 697 0 
-344 -705 346 0 
-346 344 0 
-346 705 0 
-344 -713 347 0 
-347 344 0 
-347 713 0 
-344 -721 348 0 
-348 344 0 
-348 721 0 
-344 -729 349 0 
-349 344 0 
-349 729 0 
-344 -737 350 0 
-350 344 0 
-350 737 0 
345 346 347 348 349 350 -344 351 0 
344 -351 0 
-351 -698 352 0 
-352 351 0 
-352 698 0 
-351 -706 353 0 
-353 351 0 
-353 706 0 
-351 -714 354 0 
-354 351 0 
-354 714 0 
-351 -722 355 0 
-355 351 0 
-355 722 0 
-351 -730 356 0 
-356 351 0 
-356 730 0 
-351 -738 357 0 
-357 351 0 
-357 738 0 
352 353 354 355 356 357 -351 358 0 
351 -358 0 
-42 -739 43 0 
-43 42 0 
-43 739 0 
-42 -747 44 0 
-44 42 0 
-44 747 0 
-42 -755 45 0 
-45 42 0 
-45 755 0 
-42 -763 46 0 
-46 42 0 
-46 763 0 
-42 -771 47 0 
-47 42 0 
-47 771 0 
-42 -779 48 0 
-48 42 0 
-48 779 0 
43 44 45 46 47 48 -42 359 0 
42 -359 0 
-359 -740 360 0 
-360 359 0 
-360 740 0 
-359 -748 361 0 
-361 359 0 
-361 748 0 
-359 -756 362 0 
-362 359 0 
-362 756 0 
-359 -764 363 0 
-363 359 0 
-363 764 0 
-359 -772 364 0 
-364 359 0 
-364 772 0 
-359 -780 365 0 
-365 359 0 
-365 780 0 
360 361 362 363 364 365 -359 366 0 
359 -366 0 
-366 -741 367 0 
-367 366 0 
-367 741 0 
-366 -749 368 0 
-368 366 0 
-368 749 0 
-366 -757 369 0 
-369 366 0 
-369 757 0 
-366 -765 370 0 
-370 366 0 
-370 765 0 
-366 -773 371 0 
-371 366 0 
-371 773 0 
-366 -781 372 0 
-372 366 0 
-372 781 0 
367 368 369 370 371 372 -366 373 0 
366 -373 0 
-373 -742 374 0 
-374 373 0 
-374 742 0 
-373 -750 375 0 
-375 373 0 
-375 750 0 
-373 -758 376 0 
-376 373 0 
-376 758 0 
-373 -766 377 0 
-377 373 0 
-377 766 0 
-373 -774 378 0 
-378 373 0 
-378 774 0 
-373 -782 379 0 
-379 373 0 
-379 782 0 
374 375 376 377 378 379 -373 380 0 
373 -380 0 
-380 -743 381 0 
-381 380 0 
-381 743 0 
-380 -751 382 0 
-382 380 0 
-382 751 0 
-380 -759 383 0 
-383 380 0 
-383 759 0 
-380 -767 384 0 
-384 380 0 
-384 767 0 
-380 -775 385 0 
-385 380 0 
-385 775 0 
-380 -783 386 0 
-386 380 0 
-386 783 0 
381 382 383 384 385 386 -380 387 0 
380 -387 0 
-387 -744 388 0 
-388 387 0 
-388 744 0 
-387 -752 389 0 
-389 387 0 
-389 752 0 
-387 -760 390 0 
-390 387 0 
-390 760 0 
-387 -768 391 0 
-391 387 0 
-391 768 0 
-387 -776 392 0 
-392 387 0 
-392 776 0 
-387 -784 393 0 
-393 387 0 
-393 784 0 
388 389 390 391 392 393 -387 394 0 
387 -394 0 
-394 -745 395 0 
-395 394 0 
-395 745 0 
-394 -753 396 0 
-396 394 0 
-396 753 0 
-394 -761 397 0 
-397 394 0 
-397 761 0 
-394 -769 398 0 
-398 394 0 
-398 769 0 
-394 -777 399 0 
-399 394 0 
-399 777 0 
-394 -785 400 0 
-400 394 0 
-400 785 0 
395 396 397 398 399 400 -394 401 0 
394 -401 0 
-401 -746 402 0 
-402 401 0 
-402 746 0 
-401 -754 403 0 
-403 401 0 
-403 754 0 
-401 -762 404 0 
-404 401 0 
-404 762 0 
-401 -770 405 0 
-405 401 0 
-405 770 0 
-401 -778 406 0 
-406 401 0 
-406 778 0 
-401 -786 407 0 
-407 401 0 
-407 786 0 
402 403 404 405 406 407 -401 408 0 
401 -408 0 
-49 -787 50 0 
-50 49 0 
-50 787 0 
50 -49 409 0 
49 -409 0 
-409 -788 410 0 
-410 409 0 
-410 788 0 
410 -409 411 0 
409 -411 0 
-411 -789 412 0 
-412 411 0 
-412 789 0 
412 -411 413 0 
411 -413 0 
-413 -790 414 0 
-414 413 0 
-414 790 0 
414 -413 415 0 
413 -415 0 
-415 -791 416 0 
-416 415 0 
-416 791 0 
416 -415 417 0 
415 -417 0 
-417 -792 418 0 
-418 417 0 
-418 792 0 
418 -417 419 0 
417 -419 0 
-419 -793 420 0 
-420 419 0 
-420 793 0 
420 -419 421 0 
419 -421 0 
-421 -794 422 0 
-422 421 0 
-422 794 0 
422 -421 423 0 
421 -423 0 
-51 -795 52 0 
-52 51 0 
-52 795 0 
52 -51 424 0 
51 -424 0 
-424 -796 425 0 
-425 424 0 
-425 796 0 
425 -424 426 0 
424 -426 0 
-426 -797 427 0 
-427 426 0 
-427 797 0 
427 -426 428 0 
426 -428 0 
-428 -798 429 0 
-429 428 0 
-429 798 0 
429 -428 430 0 
428 -430 0 
-430 -799 431 0 
-431 430 0 
-431 799 0 
431 -430 432 0 
430 -432 0 
-432 -800 433 0 
-433 432 0 
-433 800 0 
433 -432 434 0 
432 -434 0 
-434 -801 435 0 
-435 434 0 
-435 801 0 
435 -434 436 0 
434 -436 0 
-436 -802 437 0 
-437 436 0 
-437 802 0 
437 -436 438 0 
436 -438 0 
-53 -803 54 0 
-54 53 0 
-54 803 0 
54 -53 439 0 
53 -439 0 
-439 -804 440 0 
-440 439 0 
-440 804 0 
440 -439 441 0 
439 -441 0 
-441 -805 442 0 
-442 441 0 
-442 805 0 
442 -441 443 0 
441 -443 0 
-443 -806 444 0 
-444 443 0 
-444 806 0 
444 -443 445 0 
443 -445 0 
-445 -807 446 0 
-446 445 0 
-446 807 0 
446 -445 447 0 
445 -447 0 
-447 -808 448 0 
-448 447 0 
-448 808 0 
448 -447 449 0 
447 -449 0 
-449 -809 450 0 
-450 449 0 
-450 809 0 
450 -449 451 0 
449 -451 0 
-451 -810 452 0 
-452 451 0 
-452 810 0 
452 -451 453 0 
451 -453 0 
-55 -811 56 0 
-56 55 0 
-56 811 0 
56 -55 454 0 
55 -454 0 
-454 -812 455 0 
-455 454 0 
-455 812 0 
455 -454 456 0 
454 -456 0 
-456 -813 457 0 
-457 456 0 
-457 813 0 
457 -456 458 0 
456 -458 0 
-458 -814 459 0 
-459 458 0 
-459 814 0 
459 -458 460 0 
458 -460 0 
-460 -815 461 0 
-461 460 0 
-461 815 0 
461 -460 462 0 
460 -462 0 
-462 -816 463 0 
-463 462 0 
-463 816 0 
463 -462 464 0 
462 -464 0 
-464 -817 465 0 
-465 464 0 
-465 817 0 
465 -464 466 0 
464 -466 0 
-466 -818 467 0 
-467 466 0 
-467 818 0 
467 -466 468 0 
466 -468 0 
-57 -819 58 0 
-58 57 0 
-58 819 0 
58 -57 469 0 
57 -469 0 
-469 -820 470 0 
-470 469 0 
-470 820 0 
470 -469 471 0 
469 -471 0 
-471 -821 472 0 
-472 471 0 
-472 821 0 
472 -471 473 0 
471 -473 0 
-473 -822 474 0 
-474 473 0 
-474 822 0 
474 -473 475 0 
473 -475 0 
-475 -823 476 0 
-476 475 0 
-476 823 0 
476 -475 477 0 
475 -477 0 
-477 -824 478 0 
-478 477 0 
-478 824 0 
478 -477 479 0 
477 -479 0 
-479 -825 480 0 
-480 479 0 
-480 825 0 
480 -479 481 0 
479 -481 0 
-481 -826 482 0 
-482 481 0 
-482 826 0 
482 -481 483 0 
481 -483 0 
-59 -827 60 0 
-60 59 0 
-60 827 0 
60 -59 484 0 
59 -484 0 
-484 -828 485 0 
-485 484 0 
-485 828 0 
485 -484 486 0 
484 -486 0 
-486 -829 487 0 
-487 486 0 
-487 829 0 
487 -486 488 0 
486 -488 0 
-488 -830 489 0 
-489 488 0 
-489 830 0 
489 -488 490 0 
488 -490 0 
-490 -831 491 0 
-491 490 0 
-491 831 0 
491 -490 492 0 
490 -492 0 
-492 -832 493 0 
-493 492 0 
-493 832 0 
493 -492 494 0 
492 -494 0 
-494 -833 495 0 
-495 494 0 
-495 833 0 
495 -494 496 0 
494 -496 0 
-496 -834 497 0 
-497 496 0 
-497 834 0 
497 -496 498 0 
496 -498 0 
